db/data/2283311975133131537022853187713066119609.z3.out
sat
-------------------
90.518101925
